(set-info :status unknown)
(declare-fun %B () (_ BitVec 50))
(declare-fun %A () (_ BitVec 50))
(declare-fun %X () (_ BitVec 50))
(declare-fun u_%Y () (_ BitVec 8))
(declare-fun |ana_isPowerOf2(%A)| () (_ BitVec 1))
(assert
 (let (($x8487 (or (and (distinct %X (_ bv562949953421312 50)) true) (and (distinct (bvshl %A %B) (_ bv1125899906842623 50)) true))))
 (let ((?x6159 (bvshl %A %B)))
 (let (($x7861 (and (distinct ?x6159 (_ bv0 50)) true)))
 (let (($x12883 (bvult %B (_ bv50 50))))
 (let (($x1617 (= |ana_isPowerOf2(%A)| (_ bv1 1))))
 (let (($x4979 (=> $x1617 (and (and (distinct %A (_ bv0 50)) true) (= (bvand %A (bvsub %A (_ bv1 50))) (_ bv0 50))))))
 (and $x12883 $x7861 $x8487 $x4979 $x12883 $x1617 (= u_%Y (_ bv1 8)) (not (and $x12883 $x7861 $x8487))))))))))
(check-sat)
